\ LP format - for model browsing. Use MPS format to capture full model detail.
Maximize
  7 x_1 + 7 x_2 + 3 x_3 + 5 x_4 + x_5 + 2 x_6 + 3 x_7 + 6 x_8 + 2 x_9 + x_10
   + 9 x_11 + 4 x_12 + 3 x_13 + 5 x_14 + 3 x_15 + x_16 + 8 x_17 + 2 x_18
   + 5 x_19 + 8 x_20 + x_21 + 10 x_22 + 5 x_23 + 2 x_24 + 10 x_25
Subject To
 C_1: 9 x_1 + 5 x_2 + 9 x_3 + 8 x_4 + 9 x_5 + 5 x_6 + 6 x_7 + 5 x_8 + 7 x_9
   + 10 x_10 + 5 x_11 + x_12 + 3 x_13 + 2 x_14 + 4 x_15 + 5 x_16 + 2 x_17
   + 7 x_18 + 7 x_19 + 7 x_20 + 9 x_21 + 9 x_22 + 4 x_23 + 2 x_24 + 4 x_25
   <= 72
 C_2: 3 x_1 + 2 x_2 + 5 x_3 + 7 x_4 + 5 x_5 + 5 x_6 + 5 x_7 + 10 x_8
   + 3 x_9 + 4 x_10 + 10 x_11 + 9 x_12 + 9 x_13 + 4 x_14 + 8 x_15 + 10 x_16
   + x_17 + 10 x_18 + 4 x_19 + 4 x_20 + 3 x_21 + 8 x_22 + 6 x_23 + 9 x_24
   + 6 x_25 <= 75
 C_3: 4 x_1 + 9 x_2 + 5 x_3 + 7 x_4 + 10 x_5 + 10 x_6 + x_7 + 3 x_8 + 4 x_9
   + 7 x_10 + 8 x_11 + 8 x_12 + 3 x_13 + 9 x_14 + 3 x_15 + 8 x_16 + 8 x_17
   + 3 x_18 + 8 x_19 + 3 x_20 + 10 x_21 + 7 x_22 + 5 x_23 + 9 x_24 + 3 x_25
   <= 77
 C_4: 9 x_1 + x_2 + 10 x_3 + 6 x_4 + x_5 + 6 x_6 + 9 x_7 + 9 x_8 + 10 x_9
   + 7 x_10 + 10 x_11 + 9 x_12 + 7 x_13 + 3 x_14 + 2 x_15 + 5 x_16
   + 10 x_17 + 2 x_18 + 9 x_19 + 8 x_20 + 6 x_21 + 6 x_22 + 7 x_23 + 8 x_24
   + 3 x_25 <= 81
 C_5: 9 x_1 + 8 x_2 + x_3 + 4 x_4 + 8 x_5 + 3 x_6 + 4 x_7 + x_8 + 5 x_9
   + 9 x_10 + x_11 + 10 x_12 + 7 x_13 + 2 x_14 + x_15 + 3 x_16 + x_17
   + x_18 + x_19 + 5 x_20 + 4 x_21 + 5 x_22 + 6 x_23 + 5 x_24 + 3 x_25
   <= 53
 CC(0): x_1 + x_2 + x_3 + x_4 + x_5 + x_10 + x_11 + x_14 + x_15 + x_17
   + x_18 + x_19 + x_20 + x_21 + x_22 + x_23 + x_25 <= 12
 CC(1): x_1 + x_2 + x_3 + x_4 + x_5 + x_8 + x_10 + x_11 + x_14 + x_15
   + x_17 + x_18 + x_19 + x_20 + x_21 + x_22 + x_25 <= 12
 CC(2): x_1 + x_2 + x_3 + x_4 + x_5 + x_8 + x_10 + x_11 + x_14 + x_15
   + x_17 + x_18 + x_19 + x_20 + x_21 + x_22 + x_23 <= 12
 CC(3): x_1 + x_2 + x_3 + x_4 + x_5 + x_8 + x_10 + x_11 + x_14 + x_17
   + x_18 + x_19 + x_20 + x_21 + x_22 + x_23 + x_25 <= 12
 CC(4): x_1 + x_3 + x_4 + x_5 + x_8 + x_10 + x_11 + x_14 + x_15 + x_17
   + x_18 + x_19 + x_20 + x_21 + x_22 + x_23 + x_25 <= 12
 CC(5): x_1 + x_2 + x_8 + x_11 + x_14 + x_15 + x_16 + x_17 + x_18 + x_19
   + x_20 + x_22 + x_23 + x_25 <= 12
 CC(6): x_1 + x_2 + x_4 + x_5 + x_6 + x_8 + x_11 + x_12 + x_14 + x_15
   + x_16 + x_17 + x_18 + x_19 + x_20 + x_21 + x_22 + x_23 + x_24 + x_25
   <= 13
 CC(7): x_1 + x_2 + x_3 + x_4 + x_8 + x_9 + x_11 + x_15 + x_17 + x_18
   + x_19 + x_20 + x_22 + x_23 + x_25 <= 12
 CC(8): x_1 + x_2 + x_3 + x_4 + x_8 + x_9 + x_11 + x_14 + x_15 + x_17
   + x_18 + x_19 + x_20 + x_22 + x_23 <= 12
 CC(9): x_1 + x_3 + x_4 + x_8 + x_9 + x_11 + x_14 + x_17 + x_18 + x_19
   + x_20 + x_22 + x_23 + x_25 <= 11
 CC(10): x_1 + x_3 + x_4 + x_8 + x_9 + x_11 + x_14 + x_15 + x_17 + x_19
   + x_20 + x_22 + x_23 + x_25 <= 11
 CC(11): x_1 + x_2 + x_3 + x_4 + x_8 + x_9 + x_11 + x_12 + x_14 + x_17
   + x_18 + x_19 + x_20 + x_22 + x_23 + x_25 <= 12
 CC(12): x_1 + x_2 + x_4 + x_5 + x_8 + x_10 + x_11 + x_12 + x_14 + x_15
   + x_17 + x_20 + x_22 + x_23 + x_25 <= 12
 CC(13): x_1 + x_2 + x_3 + x_4 + x_8 + x_9 + x_11 + x_12 + x_14 + x_15
   + x_17 + x_19 + x_20 + x_22 + x_23 + x_25 <= 12
 CC(14): x_1 + x_2 + x_4 + x_8 + x_11 + x_13 + x_14 + x_15 + x_16 + x_18
   + x_20 + x_22 + x_23 + x_25 <= 11
Bounds
Binaries
 x_1 x_2 x_3 x_4 x_5 x_6 x_7 x_8 x_9 x_10 x_11 x_12 x_13 x_14 x_15 x_16
 x_17 x_18 x_19 x_20 x_21 x_22 x_23 x_24 x_25
End
